# SETS
set WORKERS := ALICE ANDREA CHIARA ELIA FABIO FRANCO FEDERICO MATTEO MICHELE ROSSANA;
set DAYS := 1 2 3 4 5;

# PARAMETERS
param priority : 1 2 3 4 5 :=
ALICE 3 3 3 3 3
ANDREA 1 3 1 0 0
CHIARA 2 1 3 0 0
ELIA 0 0 2 0 0
FABIO 1 0 2 0 1
FRANCO 0 0 0 3 2
FEDERICO 2 1 1 3 1
MATTEO 3 3 3 3 3
MICHELE 1 0 3 2 0
ROSSANA 1 0 3 2 0;

param nb_workers_allowed :=
1 6
2 6
3 6
4 6
5 6;